NAME: tsp35_9
COMMENT: 35-tsp problem (Padberg/Rinaldi)
TYPE: TSP
DIMENSION: 35
EDGE_WEIGHT_TYPE : EUC_2D
NODE_COORD_SECTION
1 37 13
2 26 7
3 22 15
4 23 5
5 2 18
6 13 16
7 2 33
8 38 6
9 35 38
10 30 7
11 14 2
12 7 10
13 16 36
14 12 14
15 25 24
16 31 9
17 25 11
18 2 37
19 40 12
20 12 7
21 27 30
22 39 36
23 36 8
24 0 27
25 2 11
26 27 20
27 14 39
28 33 27
29 27 19
30 19 15
31 33 4
32 16 32
33 15 10
34 21 4
35 27 23
